InboundTrucks  = 12;
OutboundTrucks = 8;
InboundDoors   = 4;
OutboundDoors  = 4;
ReleaseTime    = [5,0,4,4,4,3,3,1,5,2,5,5];
UnloadTime     = [23,40,26,24,28,38,21,42,44,28,32,45];
LoadTime       = [22,27,17,23,15,21,21,20];
TransferTime   = [| 31,20,0,45,0,39,33,0 | 41,0,10,13,0,17,24,35 | 0,42,32,12,20,39,0,0 | 49,45,0,23,24,0,13,23 | 11,43,50,28,19,0,40,0 | 0,39,0,12,36,43,15,0 | 46,16,13,27,34,43,29,0 | 0,49,39,12,0,0,16,16 | 26,15,16,45,41,30,19,37 | 35,20,38,0,12,0,29,0 | 43,16,29,38,13,0,41,47 | 27,48,24,0,12,46,41,43 |];
